(declare-rel fail ())
(declare-rel inv2 (Int Int Int Int Int Int))
(declare-var A Int)
(declare-var B Int)
(declare-var C Int)
(declare-var D Int)
(declare-var E Int)
(declare-var F Int)
(declare-var G Int)
(declare-var H Int)
(rule (=> (and (= H B) (= G B) (= D A) (= 1 B) (= 16 A)) (inv2 H G D A B A)))
(rule (let ((a!1 (and (inv2 H G D A B A)
                (= E (* H 2))
                (= F (ite (< G D) (* G 2) (mod H 16))))))
  (=> a!1 (inv2 E F D A B A))))
(rule (=> (and (inv2 H G D A B A) (> H D) (not (= 0 G))) fail))
(query fail)

